SAT
-1 -75 74 18 -4 -9 65 -71 47 -41 -39 -49 63 14 -33 46 -68 54 50 -43 57 -5 64 36 -40 -6 24 -73 20 -29 70 -10 19 22 12 56 15 -26 -44 -16 -60 -34 -52 7 48 28 -59 69 13 25 -31 -30 3 -55 -45 23 -53 35 -32 -8 -37 2 17 27 -58 -42 61 72 21 -11 67 38 66 51 62 0
